c
c Renamed file of comp.cnf 
c Variables are renamed according to left2right.ord 
c
c Date: Thu Apr 29 14:49:15 PDT 2004 by (jinbo)
c Host: Linux solution 2.4.18-4smp #1 SMP Thu May 2 18:32:34 EDT 2002 i686 unknown
c
c Copyright (c) 2001 Fadi A. Aloul.
c
p cnf 197 475
-98 -101 0
-102 -101 0
101 98 102 0
-101 100 0
-100 101 0
-154 -103 0
-107 -103 0
-96 -103 0
-95 -103 0
103 154 107 96 95 0
-103 102 0
-102 103 0
-46 -47 0
47 46 0
-47 98 0
-95 -94 0
-93 -94 0
94 95 93 0
-94 98 0
-96 -97 0
-95 -97 0
-104 -97 0
97 96 95 104 0
-97 98 0
-107 -99 0
-96 -99 0
-95 -99 0
-151 -99 0
99 107 96 95 151 0
-99 98 0
-98 47 94 97 99 0
-159 -158 0
-168 -158 0
158 159 168 0
-158 157 0
-157 158 0
-112 -111 0
-113 -111 0
111 112 113 0
-111 110 0
-110 111 0
-86 -87 0
-85 -87 0
87 86 85 0
-87 88 0
-88 87 0
-39 -40 0
-30 -40 0
40 39 30 0
-40 41 0
-41 40 0
-159 -155 0
157 -155 0
155 159 -157 0
-155 154 0
159 -156 0
-157 -156 0
156 -159 157 0
-156 154 0
-154 155 156 0
-112 -108 0
110 -108 0
108 112 -110 0
-108 107 0
112 -109 0
-110 -109 0
109 -112 110 0
-109 107 0
-107 108 109 0
-86 -89 0
88 -89 0
89 86 -88 0
-89 96 0
86 -90 0
-88 -90 0
90 -86 88 0
-90 96 0
-96 89 90 0
-39 -42 0
41 -42 0
42 39 -41 0
-42 95 0
39 -43 0
-41 -43 0
43 -39 41 0
-43 95 0
-95 42 43 0
-159 -152 0
152 159 0
-152 151 0
157 -153 0
153 -157 0
-153 151 0
-151 152 153 0
-112 -105 0
105 112 0
-105 104 0
110 -106 0
106 -110 0
-106 104 0
-104 105 106 0
-86 -91 0
91 86 0
-91 93 0
88 -92 0
92 -88 0
-92 93 0
-93 91 92 0
-39 -44 0
44 39 0
-44 46 0
41 -45 0
45 -41 0
-45 46 0
-46 44 45 0
-189 -190 0
190 189 0
-190 159 0
-181 -182 0
-196 -182 0
182 181 196 0
-182 159 0
-180 -179 0
-181 -179 0
-178 -179 0
179 180 181 178 0
-179 159 0
-171 -170 0
-180 -170 0
-181 -170 0
-167 -170 0
170 171 180 181 167 0
-170 159 0
-159 190 182 179 170 0
-133 -114 0
114 133 0
-114 112 0
-126 -115 0
-116 -115 0
115 126 116 0
-115 112 0
-124 -123 0
-126 -123 0
-141 -123 0
123 124 126 141 0
-123 112 0
-135 -125 0
-124 -125 0
-126 -125 0
-143 -125 0
125 135 124 126 143 0
-125 112 0
-112 114 115 123 125 0
-83 -84 0
84 83 0
-84 86 0
-75 -76 0
-57 -76 0
76 75 57 0
-76 86 0
-71 -74 0
-75 -74 0
-64 -74 0
74 71 75 64 0
-74 86 0
-70 -73 0
-71 -73 0
-75 -73 0
-55 -73 0
73 70 71 75 55 0
-73 86 0
-86 84 76 74 73 0
-9 -8 0
8 9 0
-8 39 0
-17 -16 0
-2 -16 0
16 17 2 0
-16 39 0
-18 -19 0
-17 -19 0
-20 -19 0
19 18 17 20 0
-19 39 0
-27 -28 0
-18 -28 0
-17 -28 0
-31 -28 0
28 27 18 17 31 0
-28 39 0
-39 8 16 19 28 0
-160 -169 0
-171 -169 0
-180 -169 0
-181 -169 0
169 160 171 180 181 0
-169 168 0
-168 169 0
-163 -162 0
164 -162 0
162 163 -164 0
-162 160 0
163 -161 0
-164 -161 0
161 -163 164 0
-161 160 0
-160 162 161 0
-174 -173 0
175 -173 0
173 174 -175 0
-173 171 0
174 -172 0
-175 -172 0
172 -174 175 0
-172 171 0
-171 173 172 0
-193 -192 0
194 -192 0
192 193 -194 0
-192 180 0
193 -191 0
-194 -191 0
191 -193 194 0
-191 180 0
-180 192 191 0
-186 -183 0
185 -183 0
183 186 -185 0
-183 181 0
186 -184 0
-185 -184 0
184 -186 185 0
-184 181 0
-181 183 184 0
-163 -165 0
165 163 0
-165 167 0
164 -166 0
166 -164 0
-166 167 0
-167 165 166 0
-174 -176 0
176 174 0
-176 178 0
175 -177 0
177 -175 0
-177 178 0
-178 176 177 0
-193 -197 0
197 193 0
-197 196 0
194 -195 0
195 -194 0
-195 196 0
-196 197 195 0
-186 -187 0
187 186 0
-187 189 0
185 -188 0
188 -185 0
-188 189 0
-189 187 188 0
-150 -127 0
-135 -127 0
-124 -127 0
-126 -127 0
127 150 135 124 126 0
-127 113 0
-113 127 0
-146 -149 0
147 -149 0
149 146 -147 0
-149 150 0
146 -148 0
-147 -148 0
148 -146 147 0
-148 150 0
-150 149 148 0
-138 -136 0
139 -136 0
136 138 -139 0
-136 135 0
138 -137 0
-139 -137 0
137 -138 139 0
-137 135 0
-135 136 137 0
-119 -121 0
120 -121 0
121 119 -120 0
-121 124 0
119 -122 0
-120 -122 0
122 -119 120 0
-122 124 0
-124 121 122 0
-130 -129 0
131 -129 0
129 130 -131 0
-129 126 0
130 -128 0
-131 -128 0
128 -130 131 0
-128 126 0
-126 129 128 0
-146 -145 0
145 146 0
-145 143 0
147 -144 0
144 -147 0
-144 143 0
-143 145 144 0
-138 -140 0
140 138 0
-140 141 0
139 -142 0
142 -139 0
-142 141 0
-141 140 142 0
-119 -117 0
117 119 0
-117 116 0
120 -118 0
118 -120 0
-118 116 0
-116 117 118 0
-130 -132 0
132 130 0
-132 133 0
131 -134 0
134 -131 0
-134 133 0
-133 132 134 0
-49 -72 0
-70 -72 0
-71 -72 0
-75 -72 0
72 49 70 71 75 0
-72 85 0
-85 72 0
-51 -48 0
52 -48 0
48 51 -52 0
-48 49 0
51 -50 0
-52 -50 0
50 -51 52 0
-50 49 0
-49 48 50 0
-66 -68 0
67 -68 0
68 66 -67 0
-68 70 0
66 -69 0
-67 -69 0
69 -66 67 0
-69 70 0
-70 68 69 0
-59 -61 0
60 -61 0
61 59 -60 0
-61 71 0
59 -62 0
-60 -62 0
62 -59 60 0
-62 71 0
-71 61 62 0
-79 -77 0
80 -77 0
77 79 -80 0
-77 75 0
79 -78 0
-80 -78 0
78 -79 80 0
-78 75 0
-75 77 78 0
-51 -54 0
54 51 0
-54 55 0
52 -53 0
53 -52 0
-53 55 0
-55 54 53 0
-66 -63 0
63 66 0
-63 64 0
67 -65 0
65 -67 0
-65 64 0
-64 63 65 0
-59 -56 0
56 59 0
-56 57 0
60 -58 0
58 -60 0
-58 57 0
-57 56 58 0
-79 -81 0
81 79 0
-81 83 0
80 -82 0
82 -80 0
-82 83 0
-83 81 82 0
-37 -29 0
-27 -29 0
-18 -29 0
-17 -29 0
29 37 27 18 17 0
-29 30 0
-30 29 0
-34 -36 0
35 -36 0
36 34 -35 0
-36 37 0
34 -38 0
-35 -38 0
38 -34 35 0
-38 37 0
-37 36 38 0
-24 -25 0
23 -25 0
25 24 -23 0
-25 27 0
24 -26 0
-23 -26 0
26 -24 23 0
-26 27 0
-27 25 26 0
-4 -6 0
5 -6 0
6 4 -5 0
-6 18 0
4 -7 0
-5 -7 0
7 -4 5 0
-7 18 0
-18 6 7 0
-12 -14 0
13 -14 0
14 12 -13 0
-14 17 0
12 -15 0
-13 -15 0
15 -12 13 0
-15 17 0
-17 14 15 0
-34 -32 0
32 34 0
-32 31 0
35 -33 0
33 -35 0
-33 31 0
-31 32 33 0
-24 -22 0
22 24 0
-22 20 0
23 -21 0
21 -23 0
-21 20 0
-20 22 21 0
-4 -1 0
1 4 0
-1 2 0
5 -3 0
3 -5 0
-3 2 0
-2 1 3 0
-12 -10 0
10 12 0
-10 9 0
13 -11 0
11 -13 0
-11 9 0
-9 10 11 0
